1111100 AB
360 386 413 429 445 460 476 492 508 523 539 554 569 584 599 613 628 643 658 678 698 718 737 757 776 796 816 835 855 875 894 914 935 956 977 997 1018 1039 1059 1073 1087 1101 1113 1125 1137 1149 1162 1174 1186 1202 1218 1234 1250 1272 1294
1111100 BA
386 412 442 459 475 490 506 522 538 552 567 582 597 612 627 641 656 671 686 706 726 746 765 785 804 824 844 863 883 903 924 944 965 986 1007 1027 1048 1069 1089 1103 1117 1131 1143 1153 1165 1177 1190 1202 1214 1230 1246 1262 1277 1298 1320
0000011 AB
360 388 416 444 473 501 530 558 586 615 643 672 700 729 757 786 814 843 871 900 929 958 987 1016 1045 1064 1083 1102 1121 1140 1159 1178 1207 1236 1265 1294
0000011 BA
386 414 443 471 500 528 557 585 613 642 670 699 727 756 784 813 841 870 898 927 956 985 1014 1043 1072 1091 1110 1129 1148 1167 1186 1205 1234 1263 1291 1320
